500
    1   781   781
    2   742   742
    3   942   942
    4   442   442
    5   856   856
    6   968   968
    7   925   925
    8   168   168
    9   714   714
   10   377   377
   11   763   763
   12   357   357
   13    75    75
   14   217   217
   15   541   541
   16   919   919
   17   819   819
   18   694   694
   19   812   812
   20   134   134
   21   825   825
   22   487   487
   23   237   237
   24   127   127
   25   810   810
   26   299   299
   27   886   886
   28   430   430
   29   306   306
   30   359   359
   31   846   846
   32  1000  1000
   33   707   707
   34    30    30
   35   618   618
   36   238   238
   37   679   679
   38   386   386
   39   208   208
   40   669   669
   41    51    51
   42   753   753
   43   953   953
   44    59    59
   45   738   738
   46   140   140
   47  1000  1000
   48   596   596
   49   682   682
   50    57    57
   51   970   970
   52   570   570
   53   824   824
   54   384   384
   55   657   657
   56   747   747
   57   315   315
   58   586   586
   59   497   497
   60    28    28
   61   919   919
   62   861   861
   63   677   677
   64   956   956
   65   785   785
   66   524   524
   67   335   335
   68   475   475
   69   306   306
   70   339   339
   71   515   515
   72   353   353
   73    98    98
   74   785   785
   75   614   614
   76   483   483
   77   202   202
   78   958   958
   79   680   680
   80   847   847
   81   853   853
   82   868   868
   83   563   563
   84   129   129
   85   948   948
   86    49    49
   87   159   159
   88   303   303
   89   125   125
   90   378   378
   91   156   156
   92   311   311
   93   471   471
   94   836   836
   95   915   915
   96   184   184
   97   981   981
   98   412   412
   99   202   202
  100   437   437
  101   468   468
  102    39    39
  103   634   634
  104   814   814
  105   947   947
  106   883   883
  107   182   182
  108   353   353
  109   246   246
  110   932   932
  111   121   121
  112   662   662
  113   279   279
  114   394   394
  115   380   380
  116   616   616
  117   306   306
  118   480   480
  119   468   468
  120   407   407
  121   610   610
  122   376   376
  123   884   884
  124    50    50
  125   277   277
  126   633   633
  127   524   524
  128   161   161
  129   833   833
  130   682   682
  131   718   718
  132   553   553
  133   258   258
  134    25    25
  135  1000  1000
  136   281   281
  137   714   714
  138   940   940
  139   955   955
  140   465   465
  141    75    75
  142   625   625
  143   279   279
  144    67    67
  145   804   804
  146   417   417
  147   601   601
  148   585   585
  149   413   413
  150   846   846
  151   242   242
  152   750   750
  153   648   648
  154   406   406
  155   845   845
  156   569   569
  157   918   918
  158   192   192
  159   484   484
  160    11    11
  161   139   139
  162    91    91
  163   503   503
  164   850   850
  165   936   936
  166   701   701
  167   491   491
  168   918   918
  169   179   179
  170   489   489
  171   115   115
  172   744   744
  173   781   781
  174   434   434
  175   806   806
  176   955   955
  177    96    96
  178   244   244
  179   165   165
  180   354   354
  181   402   402
  182   602   602
  183   790   790
  184   697   697
  185   242   242
  186   657   657
  187    57    57
  188     8     8
  189   798   798
  190    36    36
  191   471   471
  192   458   458
  193   559   559
  194   569   569
  195   954   954
  196    68    68
  197   850   850
  198   872   872
  199   390   390
  200   992   992
  201   979   979
  202   652   652
  203   650   650
  204   969   969
  205    80    80
  206   458   458
  207   690   690
  208   601   601
  209   863   863
  210   591   591
  211   220   220
  212   455   455
  213   797   797
  214   902   902
  215   788   788
  216   964   964
  217   604   604
  218   750   750
  219   135   135
  220   900   900
  221   816   816
  222   697   697
  223   209   209
  224   250   250
  225    23    23
  226   137   137
  227   227   227
  228   123   123
  229   603   603
  230    54    54
  231   428   428
  232   125   125
  233   469   469
  234    11    11
  235   643   643
  236   633   633
  237    63    63
  238   998   998
  239   606   606
  240   315   315
  241   445   445
  242    85    85
  243    10    10
  244   298   298
  245   457   457
  246   582   582
  247   912   912
  248   579   579
  249   499   499
  250    95    95
  251   288   288
  252   352   352
  253   633   633
  254   108   108
  255   525   525
  256   982   982
  257   728   728
  258   967   967
  259   317   317
  260   916   916
  261   863   863
  262   866   866
  263   875   875
  264   359   359
  265   156   156
  266   320   320
  267   586   586
  268   402   402
  269   582   582
  270   633   633
  271   160   160
  272   739   739
  273   383   383
  274   700   700
  275   604   604
  276   209   209
  277    75    75
  278   887   887
  279    46    46
  280   289   289
  281   361   361
  282   786   786
  283     2     2
  284    88    88
  285   741   741
  286   745   745
  287   593   593
  288   475   475
  289   647   647
  290   456   456
  291   772   772
  292   282   282
  293   676   676
  294    25    25
  295   757   757
  296    59    59
  297   710   710
  298   752   752
  299   108   108
  300   922   922
  301   531   531
  302   688   688
  303   946   946
  304   854   854
  305   951   951
  306   743   743
  307   518   518
  308   999   999
  309   719   719
  310   284   284
  311     2     2
  312   564   564
  313   980   980
  314   409   409
  315   289   289
  316   953   953
  317   159   159
  318   731   731
  319   487   487
  320   605   605
  321   103   103
  322   686   686
  323   332   332
  324   225   225
  325   108   108
  326   126   126
  327   735   735
  328   573   573
  329   231   231
  330   328   328
  331   876   876
  332   725   725
  333   384   384
  334    71    71
  335   417   417
  336   408   408
  337   603   603
  338   682   682
  339   867   867
  340   713   713
  341   352   352
  342   578   578
  343   791   791
  344   662   662
  345   742   742
  346    34    34
  347   647   647
  348    46    46
  349   596   596
  350   431   431
  351   636   636
  352   872   872
  353   700   700
  354   999   999
  355   491   491
  356   326   326
  357   316   316
  358   798   798
  359    61    61
  360    88    88
  361   393   393
  362   147   147
  363   998   998
  364    21    21
  365   234   234
  366   241   241
  367   106   106
  368   941   941
  369   206   206
  370   113   113
  371   247   247
  372   353   353
  373   140   140
  374   469   469
  375   699   699
  376   796   796
  377   581   581
  378   863   863
  379   707   707
  380   243   243
  381    16    16
  382   456   456
  383   764   764
  384   319   319
  385   842   842
  386   557   557
  387   578   578
  388   756   756
  389   783   783
  390   932   932
  391    83    83
  392   833   833
  393   225   225
  394    44    44
  395    39    39
  396   936   936
  397   564   564
  398   434   434
  399   847   847
  400   144   144
  401    28    28
  402   200   200
  403   454   454
  404   949   949
  405   516   516
  406   696   696
  407   496   496
  408   394   394
  409   868   868
  410   918   918
  411   982   982
  412    92    92
  413   526   526
  414   779   779
  415   371   371
  416   335   335
  417    37    37
  418   678   678
  419   303   303
  420   527   527
  421   234   234
  422   565   565
  423   933   933
  424   637   637
  425   292   292
  426   793   793
  427   722   722
  428   553   553
  429   291   291
  430   167   167
  431   845   845
  432   766   766
  433   618   618
  434   699   699
  435   717   717
  436   385   385
  437   239   239
  438   551   551
  439   388   388
  440   435   435
  441   599   599
  442   969   969
  443   230   230
  444   782   782
  445   811   811
  446   659   659
  447   477   477
  448   756   756
  449   129   129
  450   820   820
  451    37    37
  452   883   883
  453   425   425
  454   380   380
  455   447   447
  456   205   205
  457   501   501
  458   364   364
  459   884   884
  460   684   684
  461   859   859
  462   636   636
  463   208   208
  464   315   315
  465    82    82
  466   542   542
  467   568   568
  468   535   535
  469   879   879
  470    95    95
  471   601   601
  472   700   700
  473   443   443
  474   990   990
  475   927   927
  476   652   652
  477   754   754
  478   901   901
  479   830   830
  480   346   346
  481   403   403
  482     5     5
  483   361   361
  484   973   973
  485   591   591
  486   526   526
  487   253   253
  488   488   488
  489   592   592
  490   771   771
  491   784   784
  492   694   694
  493   847   847
  494   364   364
  495   851   851
  496   211   211
  497   562   562
  498   477   477
  499   650   650
  500   445   445
43313
